letting initialStacks = [29, 48, 43, 19, 14, 30, 15, 46, 2, 9, 17, 33, 22, 47, 25, 10, 12, 21, 50, 44, 32, 23, 28, 16, 27, 49, 7, 13, 51, 5, 18, 6, 31, 40, 26, 35, 41, 4, 45, 36, 3, 24, 11, 39, 1, 34, 20, 8, 37, 38, 42]
